Assets/LKHProbs~/bomb.17.tsp
NAME : GeneratedProblem
COMMENT : SVGCrosshatch
TYPE : TSP
DIMENSION : 7
EDGE_WEIGHT_TYPE : EUC_2D
NODE_COORD_SECTION
1 1500 10500
2 1500 10600
3 1600 10800
4 1600 10900
5 1600 11000
6 1700 11500
7 2200 10500
EOF
